results/x-long/X-n134-k13.vrp_seed-16.out
10920	1036
