results/x-long/X-n134-k13.vrp_seed-16.vrp.sol
Route #1: 100 122 11 114 131 101 52 40
Route #2: 127 112 64 117 49 69 1 29 31
Route #3: 3 72 86 33 124 12 133 82 76
Route #4: 128 125 115 80 130 19 17 109 132
Route #5: 48 79 43 36 111 120 71 61 92
Route #6: 129 116 105 41 34 58 60 95
Route #7: 90 66 53 77 23 98 75 28 65 42 93 94 102 88 37 24
Route #8: 83 38 50 35 26 74 87 78
Route #9: 118 51 16 47 9 2 14 91
Route #10: 89 113 25 59 96 18 73 39
Route #11: 13 63 15 81 84 107 70 4 27 22 55 126 20 67 44 8 30 68 7 121 5 97 6 108
Route #12: 103 10 62 32 54 110 123 56
Route #13: 119 57 104 99 46 21 45 106 85
Cost 10920.000000